(set-logic QF_LRA)
(declare-fun X0 () Real )
(declare-fun Y0 () Real )
(declare-fun X1 () Real )
(declare-fun Y1 () Real )
(declare-fun X2 () Real )
(declare-fun Y2 () Real )
(declare-fun X3 () Real )
(declare-fun Y3 () Real )
(declare-fun X4 () Real )
(declare-fun Y4 () Real )
(declare-fun X5 () Real )
(declare-fun Y5 () Real )
(declare-fun X6 () Real )
(declare-fun Y6 () Real )
(declare-fun X7 () Real )
(declare-fun Y7 () Real )
(declare-fun X8 () Real )
(declare-fun Y8 () Real )
(declare-fun Z () Real )
(assert ( and  
( or ( <= ( + X0 7 ) X1 )  ( <= ( + X1 59 ) X0 )  ( <= ( + Y0 38 ) Y1 )  ( <= ( + Y1 5 ) Y0 )  )
( or ( <= ( + X0 7 ) X2 )  ( <= ( + X2 45 ) X0 )  ( <= ( + Y0 38 ) Y2 )  ( <= ( + Y2 98 ) Y0 )  )
( or ( <= ( + X0 7 ) X3 )  ( <= ( + X3 83 ) X0 )  ( <= ( + Y0 38 ) Y3 )  ( <= ( + Y3 100 ) Y0 )  )
( or ( <= ( + X0 7 ) X4 )  ( <= ( + X4 28 ) X0 )  ( <= ( + Y0 38 ) Y4 )  ( <= ( + Y4 57 ) Y0 )  )
( or ( <= ( + X0 7 ) X5 )  ( <= ( + X5 30 ) X0 )  ( <= ( + Y0 38 ) Y5 )  ( <= ( + Y5 25 ) Y0 )  )
( or ( <= ( + X0 7 ) X6 )  ( <= ( + X6 39 ) X0 )  ( <= ( + Y0 38 ) Y6 )  ( <= ( + Y6 78 ) Y0 )  )
( or ( <= ( + X0 7 ) X7 )  ( <= ( + X7 73 ) X0 )  ( <= ( + Y0 38 ) Y7 )  ( <= ( + Y7 75 ) Y0 )  )
( or ( <= ( + X0 7 ) X8 )  ( <= ( + X8 23 ) X0 )  ( <= ( + Y0 38 ) Y8 )  ( <= ( + Y8 42 ) Y0 )  )
( or ( <= ( + X1 59 ) X2 )  ( <= ( + X2 45 ) X1 )  ( <= ( + Y1 5 ) Y2 )  ( <= ( + Y2 98 ) Y1 )  )
( or ( <= ( + X1 59 ) X3 )  ( <= ( + X3 83 ) X1 )  ( <= ( + Y1 5 ) Y3 )  ( <= ( + Y3 100 ) Y1 )  )
( or ( <= ( + X1 59 ) X4 )  ( <= ( + X4 28 ) X1 )  ( <= ( + Y1 5 ) Y4 )  ( <= ( + Y4 57 ) Y1 )  )
( or ( <= ( + X1 59 ) X5 )  ( <= ( + X5 30 ) X1 )  ( <= ( + Y1 5 ) Y5 )  ( <= ( + Y5 25 ) Y1 )  )
( or ( <= ( + X1 59 ) X6 )  ( <= ( + X6 39 ) X1 )  ( <= ( + Y1 5 ) Y6 )  ( <= ( + Y6 78 ) Y1 )  )
( or ( <= ( + X1 59 ) X7 )  ( <= ( + X7 73 ) X1 )  ( <= ( + Y1 5 ) Y7 )  ( <= ( + Y7 75 ) Y1 )  )
( or ( <= ( + X1 59 ) X8 )  ( <= ( + X8 23 ) X1 )  ( <= ( + Y1 5 ) Y8 )  ( <= ( + Y8 42 ) Y1 )  )
( or ( <= ( + X2 45 ) X3 )  ( <= ( + X3 83 ) X2 )  ( <= ( + Y2 98 ) Y3 )  ( <= ( + Y3 100 ) Y2 )  )
( or ( <= ( + X2 45 ) X4 )  ( <= ( + X4 28 ) X2 )  ( <= ( + Y2 98 ) Y4 )  ( <= ( + Y4 57 ) Y2 )  )
( or ( <= ( + X2 45 ) X5 )  ( <= ( + X5 30 ) X2 )  ( <= ( + Y2 98 ) Y5 )  ( <= ( + Y5 25 ) Y2 )  )
( or ( <= ( + X2 45 ) X6 )  ( <= ( + X6 39 ) X2 )  ( <= ( + Y2 98 ) Y6 )  ( <= ( + Y6 78 ) Y2 )  )
( or ( <= ( + X2 45 ) X7 )  ( <= ( + X7 73 ) X2 )  ( <= ( + Y2 98 ) Y7 )  ( <= ( + Y7 75 ) Y2 )  )
( or ( <= ( + X2 45 ) X8 )  ( <= ( + X8 23 ) X2 )  ( <= ( + Y2 98 ) Y8 )  ( <= ( + Y8 42 ) Y2 )  )
( or ( <= ( + X3 83 ) X4 )  ( <= ( + X4 28 ) X3 )  ( <= ( + Y3 100 ) Y4 )  ( <= ( + Y4 57 ) Y3 )  )
( or ( <= ( + X3 83 ) X5 )  ( <= ( + X5 30 ) X3 )  ( <= ( + Y3 100 ) Y5 )  ( <= ( + Y5 25 ) Y3 )  )
( or ( <= ( + X3 83 ) X6 )  ( <= ( + X6 39 ) X3 )  ( <= ( + Y3 100 ) Y6 )  ( <= ( + Y6 78 ) Y3 )  )
( or ( <= ( + X3 83 ) X7 )  ( <= ( + X7 73 ) X3 )  ( <= ( + Y3 100 ) Y7 )  ( <= ( + Y7 75 ) Y3 )  )
( or ( <= ( + X3 83 ) X8 )  ( <= ( + X8 23 ) X3 )  ( <= ( + Y3 100 ) Y8 )  ( <= ( + Y8 42 ) Y3 )  )
( or ( <= ( + X4 28 ) X5 )  ( <= ( + X5 30 ) X4 )  ( <= ( + Y4 57 ) Y5 )  ( <= ( + Y5 25 ) Y4 )  )
( or ( <= ( + X4 28 ) X6 )  ( <= ( + X6 39 ) X4 )  ( <= ( + Y4 57 ) Y6 )  ( <= ( + Y6 78 ) Y4 )  )
( or ( <= ( + X4 28 ) X7 )  ( <= ( + X7 73 ) X4 )  ( <= ( + Y4 57 ) Y7 )  ( <= ( + Y7 75 ) Y4 )  )
( or ( <= ( + X4 28 ) X8 )  ( <= ( + X8 23 ) X4 )  ( <= ( + Y4 57 ) Y8 )  ( <= ( + Y8 42 ) Y4 )  )
( or ( <= ( + X5 30 ) X6 )  ( <= ( + X6 39 ) X5 )  ( <= ( + Y5 25 ) Y6 )  ( <= ( + Y6 78 ) Y5 )  )
( or ( <= ( + X5 30 ) X7 )  ( <= ( + X7 73 ) X5 )  ( <= ( + Y5 25 ) Y7 )  ( <= ( + Y7 75 ) Y5 )  )
( or ( <= ( + X5 30 ) X8 )  ( <= ( + X8 23 ) X5 )  ( <= ( + Y5 25 ) Y8 )  ( <= ( + Y8 42 ) Y5 )  )
( or ( <= ( + X6 39 ) X7 )  ( <= ( + X7 73 ) X6 )  ( <= ( + Y6 78 ) Y7 )  ( <= ( + Y7 75 ) Y6 )  )
( or ( <= ( + X6 39 ) X8 )  ( <= ( + X8 23 ) X6 )  ( <= ( + Y6 78 ) Y8 )  ( <= ( + Y8 42 ) Y6 )  )
( or ( <= ( + X7 73 ) X8 )  ( <= ( + X8 23 ) X7 )  ( <= ( + Y7 75 ) Y8 )  ( <= ( + Y8 42 ) Y7 )  )
( >= X0 0)
( <= ( + X0 7) Z)
( >= Y0 0)
( <= ( + Y0 38 ) 100)
( >= X1 0)
( <= ( + X1 59) Z)
( >= Y1 0)
( <= ( + Y1 5 ) 100)
( >= X2 0)
( <= ( + X2 45) Z)
( >= Y2 0)
( <= ( + Y2 98 ) 100)
( >= X3 0)
( <= ( + X3 83) Z)
( >= Y3 0)
( <= ( + Y3 100 ) 100)
( >= X4 0)
( <= ( + X4 28) Z)
( >= Y4 0)
( <= ( + Y4 57 ) 100)
( >= X5 0)
( <= ( + X5 30) Z)
( >= Y5 0)
( <= ( + Y5 25 ) 100)
( >= X6 0)
( <= ( + X6 39) Z)
( >= Y6 0)
( <= ( + Y6 78 ) 100)
( >= X7 0)
( <= ( + X7 73) Z)
( >= Y7 0)
( <= ( + Y7 75 ) 100)
( >= X8 0)
( <= ( + X8 23) Z)
( >= Y8 0)
( <= ( + Y8 42 ) 100)
) )
(minimize Z)
(check-sat)
